--- Job ChatPT_GAMS_code_v7_full_changes.gms Start 11/24/25 09:39:15 39.1.1 dbf03b78 WEX-WEI x86 64bit/MS Windows
--- Applying:
    C:\GAMS\39\gmsprmNT.txt
--- GAMS Parameters defined
    Input C:\Users\karl\Documents\NTNU9\Master\Prosjektoppgave_dekarbonisering_i_Mo_industripark\ChatPT_GAMS_code_v7_full_changes.gms
    PageSize 0
    ScrDir C:\Users\karl\Documents\NTNU9\Master\Prosjektoppgave_dekarbonisering_i_Mo_industripark\225a\
    SysDir C:\GAMS\39\
    LogOption 3
    ErrMsg 1
    ErrorLog 99
    IDE 1
    LstTitleLeftAligned 1
Licensee: Small MUD - 5 User License                     S240604|0002AP-GEN
          Norwegian University of Science and Technology             DC7530
          C:\Users\karl\Documents\GAMS\gamslice.txt
          License Admin: Ruud Egging, ruud.egging@ntnu.no                  
Processor information: 1 socket(s), 10 core(s), and 20 thread(s) available
GAMS 39.1.1   Copyright (C) 1987-2022 GAMS Development. All rights reserved
--- Starting compilation
--- ChatPT_GAMS_code_v7_full_changes.gms(729) 3 Mb
--- Starting execution: elapsed 0:00:00.008
--- ChatPT_GAMS_code_v7_full_changes.gms(646) 4 Mb
--- Generating LP model FeMn_SiMn_Opt
--- ChatPT_GAMS_code_v7_full_changes.gms(651) 5 Mb
---   2,689 rows  3,031 columns  9,653 non-zeroes
--- Range statistics (absolute non-zero finite values)
--- RHS       [min, max] : [ 4.600E+02, 3.000E+05] - Zero values observed as well
--- Bound     [min, max] : [        NA,        NA] - Zero values observed as well
--- Matrix    [min, max] : [ 1.000E-02, 3.330E+04]
--- Executing CPLEX (Solvelink=2): elapsed 0:00:00.332

IBM ILOG CPLEX   39.1.1 dbf03b78 May 18, 2022          WEI x86 64bit/MS Window

--- GAMS/Cplex licensed for continuous and discrete problems.
--- GMO setup time: 0.00s
--- Space for names approximately 0.16 Mb
--- Use option 'names no' to turn use of names off
--- GMO memory 1.16 Mb (peak 1.18 Mb)
--- Dictionary memory 0.00 Mb
--- Cplex 22.1.0.0 link memory 0.09 Mb (peak 0.40 Mb)
--- Starting Cplex

Version identifier: 22.1.0.0 | 2022-03-09 | 1a383f8ce
CPXPARAM_Advance                                 0
CPXPARAM_Threads                                 1
CPXPARAM_MIP_Display                             4
CPXPARAM_MIP_Pool_Capacity                       0
CPXPARAM_MIP_Tolerances_AbsMIPGap                0
Tried aggregator 1 time.
LP Presolve eliminated 1477 rows and 863 columns.
Aggregator did 748 substitutions.
Reduced LP has 463 rows, 1420 columns, and 4510 nonzeros.
Presolve time = 0.00 sec. (3.65 ticks)
Symmetry aggregator did 740 additional substitutions.
Initializing dual steep norms . . .

Iteration log . . .
Iteration:     1   Dual objective     =      12659997.000000
Iteration:    89   Dual objective     =     636667128.407314
Iteration:   172   Dual objective     =    1410674120.761932

Dual crossover.
  Dual:  Fixing 27 variables.
       26 DMoves:  Infeasibility  3.48165941e-13  Objective  1.45939222e+09
        0 DMoves:  Infeasibility  3.48165941e-13  Objective  1.45939222e+09
  Dual:  Pushed 0, exchanged 27.
  Primal:  Fixing 57 variables.
       56 PMoves:  Infeasibility  0.00000000e+00  Objective  1.45939222e+09
        0 PMoves:  Infeasibility  0.00000000e+00  Objective  1.45939222e+09
  Primal:  Pushed 34, exchanged 23.

--- LP status (1): optimal.
--- Cplex Time: 0.00sec (det. 6.96 ticks)


Optimal solution found
Objective:   1459392219.502036

--- Reading solution for model FeMn_SiMn_Opt
--- Executing after solve: elapsed 0:00:00.714
--- ChatPT_GAMS_code_v7_full_changes.gms(695) 5 Mb
--- GDX File (execute_unload) C:\Users\karl\Documents\NTNU9\Master\Prosjektoppgave_dekarbonisering_i_Mo_industripark\output_test_2.gdx
--- ChatPT_GAMS_code_v7_full_changes.gms(729) 5 Mb
*** Status: Normal completion
--- Job ChatPT_GAMS_code_v7_full_changes.gms Stop 11/24/25 09:39:16 elapsed 0:00:00.749
